N = 6;
Capacity = 4;
nbVehicles = 8;
maxVisitsPerCustomer = 2;
ItemsPerCustomer = [7, 8, 4, 4, 6, 3];
maxItemsPerCustomer = 8;
binCapacity = 50;
SizesOfItems = [|
  37, 36, 26, 24, 21, 21, 15, 0
| 39, 38, 32, 23, 21, 14, 12, 11
| 38, 27, 22, 11, 0, 0, 0, 0
| 40, 37, 19, 17, 0, 0, 0, 0
| 50, 50, 50, 50, 50, 50, 0, 0
| 31, 27, 21, 0, 0, 0, 0, 0
|];
Distance = [|
  0, 44, 29, 17, 49, 31, 25
| 44, 0, 36, 43, 55, 58, 68
| 29, 36, 0, 43, 71, 23, 44
| 17, 43, 43, 0, 32, 48, 37
| 49, 55, 71, 32, 0, 80, 67
| 31, 58, 23, 48, 80, 0, 30
| 25, 68, 44, 37, 67, 30, 0
|];
